0 2847
1 2589
2 2352
3 2352
4 2276
5 2088
6 2088
7 2088
8 2052
9 2036
10 2007
11 1984
12 1949
13 1703
14 1703
15 1703
16 1697
17 1669
18 1657
19 1595
20 1595
21 1579
22 1579
23 1579
24 1448
25 1448
26 1448
27 1444
28 1426
29 1426
30 1405
31 1364
32 1364
33 1364
34 1364
35 1364
36 1364
37 1364
38 1345
39 1272
40 1269
41 1261
42 1261
43 1261
44 1261
45 1261
46 1261
47 1175
48 1175
49 1175
50 1169
51 1159
52 1159
53 1159
54 1159
55 1159
56 1159
57 1159
58 1159
59 1159
60 1159
61 1137
62 1137
63 1137
64 1137
65 1137
66 1137
67 1127
68 1127
69 1127
70 1127
71 1127
72 1127
73 1127
74 1127
75 1127
76 1127
77 1127
78 1127
79 1127
80 1127
81 1127
82 1127
83 1127
84 1127
85 1127
86 1127
87 1127
88 1127
89 1125
90 1125
91 1125
92 1125
93 1103
94 1103
95 1103
96 1103
97 1103
98 1103
99 1103
100 1103
101 1101
102 1101
103 1101
104 1100
105 1100
106 1100
107 1100
108 1100
109 1100
110 1100
111 1100
112 1100
113 1100
114 1100
115 1100
116 1100
117 1100
118 1089
119 1089
120 1089
121 1089
122 1089
123 1089
124 1089
125 1051
126 1051
127 1051
128 1051
129 1051
130 1051
131 1051
132 1051
133 1051
134 1051
135 1051
136 1051
137 1051
138 1051
139 1051
140 1051
141 1051
142 1051
143 1051
144 1051
145 1051
146 1051
147 1051
148 1051
149 1051
150 1051
151 1051
152 1051
153 1051
154 1051
155 1042
156 1042
157 1042
158 1042
159 1042
160 1042
161 1042
162 1042
163 1042
164 1039
165 1039
166 1039
167 1039
168 1039
169 1039
170 1039
171 1039
172 1039
173 1039
174 1039
175 1039
176 1039
177 1039
178 1039
179 1039
180 1039
181 1039
182 1039
183 1039
184 1039
185 1039
186 1039
187 1039
188 1039
189 1039
190 1039
191 1039
192 1039
193 1039
194 1039
195 1039
196 1039
197 1039
198 1039
199 1039
200 1039
201 1039
202 1039
203 1039
204 1039
205 1033
206 1033
207 1033
208 1033
209 1033
210 1033
211 1033
212 1033
213 1033
214 1033
215 1033
216 1033
217 1033
218 1033
219 1033
220 1033
221 1033
222 1033
223 1033
224 1033
225 1033
226 1033
227 1033
228 1033
229 1033
230 1033
231 1033
232 1033
233 1033
234 1033
235 1033
236 1033
237 1033
238 1033
239 1033
240 1033
241 1033
242 1033
243 1033
244 1033
245 1033
246 1032
247 1032
248 1032
249 1032
250 1032
251 1032
252 1032
253 1032
254 1032
255 1032
256 1032
257 1032
258 1032
259 1032
260 1032
261 1032
262 1032
263 1032
264 1032
265 1032
266 1032
267 1032
268 1032
269 1032
270 1032
271 1032
272 1032
273 1028
274 1028
275 1028
276 1028
277 1028
278 1028
279 1028
280 1028
281 1028
282 1028
283 1028
284 1028
285 1028
286 1028
287 1028
288 1028
289 1028
290 1028
291 1028
292 1028
293 1028
294 1028
295 1028
296 1028
297 1028
298 1028
299 1028
300 1028
301 1028
302 1019
303 1019
304 1019
305 1019
306 1019
307 1019
308 1019
309 1019
310 1019
311 1019
312 1019
313 1019
314 1019
315 1019
316 1019
317 1019
318 1019
319 1019
320 1019
321 1019
322 1019
323 1019
324 1019
325 1019
326 1019
327 1019
328 1019
329 1019
330 1019
331 1019
332 1019
333 1019
334 1019
335 1019
336 1019
337 1019
338 1019
339 1019
340 1019
341 1019
342 1019
343 1019
344 1019
345 1019
346 1019
347 1019
348 1019
349 1019
350 1019
351 1019
352 1019
353 1019
354 1019
355 1019
356 1019
357 1019
358 1019
359 1019
360 1019
361 1019
362 1019
363 1019
364 1019
365 1019
366 1019
367 1019
368 1019
369 1019
370 1019
371 1019
372 1019
373 1019
374 1019
375 1019
376 1019
377 1016
378 1016
379 1016
380 1016
381 1016
382 1016
383 1016
384 1016
385 1016
386 1016
387 1016
388 1016
389 1016
390 1016
391 1016
392 1016
393 1016
394 1016
395 1016
396 1016
397 1016
398 1016
399 1016
400 1016
401 1016
402 1016
403 1016
404 1016
405 1016
406 1016
407 1016
408 1016
409 1016
410 1016
411 1016
412 1016
413 1016
414 1016
415 1016
416 1016
417 1016
418 1016
419 1016
420 1016
421 1016
422 1016
423 1016
424 1016
425 1016
426 1016
427 1016
428 1016
429 1016
430 1016
431 1016
432 1016
433 1016
434 1006
435 1006
436 1006
437 1006
438 1006
439 1006
440 1006
441 1006
442 1006
443 1006
444 1006
445 1006
446 1006
447 1006
448 1006
449 1006
450 1006
451 1006
452 1006
453 1005
454 996
455 980
456 980
457 970
458 970
459 970
460 970
461 970
462 970
463 970
464 970
465 962
466 962
467 962
468 962
469 962
470 962
471 962
472 962
473 962
474 962
475 962
476 962
477 962
478 962
479 962
480 962
481 962
482 959
483 959
484 959
485 959
486 959
487 959
488 959
489 959
490 959
491 959
492 959
493 959
494 959
495 959
496 959
497 959
498 959
499 959
500 959
501 959
502 959
503 959
504 959
505 959
506 959
507 959
508 959
509 959
510 959
511 959
512 959
513 959
514 959
515 959
516 959
517 959
518 959
519 959
520 959
521 959
522 959
523 959
524 959
525 959
526 959
527 959
528 959
529 959
530 959
531 959
532 959
533 958
534 958
535 958
536 958
537 958
538 958
539 958
540 958
541 958
542 958
543 958
544 958
545 958
546 958
547 958
548 958
549 958
550 958
551 958
552 958
553 958
554 958
555 958
556 958
557 958
558 958
559 958
560 958
561 958
562 955
563 955
564 955
565 955
566 955
567 955
568 955
569 955
570 955
571 955
572 955
573 955
574 955
575 955
576 955
577 955
578 955
579 955
580 955
581 955
582 955
583 955
584 955
585 955
586 955
587 955
588 955
589 955
590 955
591 955
592 955
593 955
594 955
595 955
596 952
597 952
598 952
599 952
600 952
601 952
602 952
603 952
604 952
605 952
606 952
607 952
608 952
609 952
610 952
611 952
612 952
613 952
614 952
615 952
616 952
617 952
618 952
619 952
620 952
621 952
622 952
623 952
624 952
625 952
626 952
627 952
628 952
629 952
630 952
631 952
632 949
633 949
634 949
635 949
636 949
637 949
638 949
639 949
640 949
641 949
642 949
643 949
644 949
645 949
646 949
647 949
648 949
649 949
650 949
651 949
652 949
653 949
654 949
655 949
656 949
657 949
658 949
659 949
660 949
661 949
662 949
663 949
664 949
665 949
666 949
667 949
668 949
669 949
670 949
671 949
672 949
673 949
674 949
675 949
676 949
677 949
678 949
679 949
680 949
681 949
682 949
683 949
684 949
685 949
686 949
687 949
688 949
689 949
690 949
691 949
692 949
693 949
694 949
695 949
696 949
697 949
698 949
699 949
700 949
701 949
702 949
703 949
704 949
705 949
706 949
707 949
708 949
709 949
710 949
711 949
712 949
713 949
714 949
715 949
716 949
717 949
718 949
719 949
720 949
721 949
722 949
723 949
724 949
725 949
726 949
727 949
728 949
729 949
730 949
731 949
732 949
733 949
734 946
735 946
736 946
737 946
738 946
739 946
740 946
741 946
742 946
743 946
744 946
745 946
746 946
747 946
748 946
749 946
750 946
751 946
752 946
753 946
754 946
755 946
756 946
757 946
758 946
759 946
760 946
761 946
762 946
763 946
764 946
765 946
766 946
767 946
768 946
769 946
770 946
771 946
772 946
773 946
774 946
775 946
776 946
777 946
778 946
779 946
780 946
781 946
782 946
783 946
784 946
785 946
786 946
787 946
788 942
789 942
790 942
791 942
792 942
793 942
794 942
795 942
796 942
797 942
798 942
799 942
800 942
801 942
802 942
803 942
804 942
805 942
806 942
807 942
808 942
809 942
810 942
811 942
812 942
813 942
814 942
815 942
816 942
817 942
818 942
819 942
820 942
821 942
822 942
823 942
824 942
825 942
826 942
827 942
828 942
829 942
830 942
831 942
832 942
833 942
834 942
835 942
836 942
837 942
838 942
839 942
840 942
841 942
842 942
843 942
844 942
845 942
846 942
847 942
848 942
849 942
850 942
851 942
852 942
853 942
854 942
855 942
856 942
857 942
858 942
859 942
860 942
861 942
862 942
863 942
864 942
865 942
866 942
867 942
868 942
869 942
870 942
871 942
872 942
873 942
874 942
875 942
876 942
877 942
878 942
879 942
880 942
881 942
882 942
883 942
884 942
885 942
886 942
887 942
888 942
889 942
890 942
891 942
892 942
893 942
894 942
895 942
896 942
897 942
898 942
899 942
900 942
901 942
902 942
903 942
904 942
905 942
906 942
907 942
908 942
909 942
910 942
911 942
912 942
913 942
914 942
915 942
916 942
917 942
918 942
919 942
920 942
921 942
922 942
923 942
924 942
925 942
926 942
927 942
928 942
929 942
930 942
931 942
932 942
933 942
934 942
935 942
936 942
937 942
938 942
939 942
940 942
941 942
942 942
943 942
944 942
945 942
946 942
947 942
948 942
949 942
950 942
951 942
952 942
953 942
954 942
955 942
956 942
957 942
958 942
959 942
960 942
961 942
962 942
963 942
964 942
965 942
966 942
967 942
968 942
969 942
970 942
971 942
972 942
973 942
974 942
975 942
976 942
977 942
978 942
979 942
980 942
981 942
982 942
983 942
984 942
985 942
986 942
987 942
988 942
989 942
990 942
991 942
992 942
993 942
994 942
995 942
996 942
997 942
998 942
999 942
Best: [[25,9,12,5,29,3],
       [27,32,20,18,7,15,28,21],
       [6,30,26,11,16,23,10,19,24,4],
       [13,2,22,14,8],
       [31,17]], fitness: 942
